     Program PWSCF v.7.1 starts on 20Mar2023 at 21:34:17

     Waiting for input...
     Reading input from standard input

     Current dimensions of program PWSCF are:
     Max number of different atomic species (ntypx) = 10
     Max number of k-points (npk) =  40000
     Max angular momentum in pseudopotentials (lmaxx) =  4
     file Cu.pz-d-rrkjus.UPF: wavefunction(s)  3D renormalized
     Message from routine setup:
     using ibrav=0 with symmetry is DISCOURAGED, use correct ibrav instead

     Subspace diagonalization in iterative solution of the eigenvalue problem:
     a serial algorithm will be used

     Using Slab Decomposition

     bravais-lattice index     =            0
     lattice parameter (alat)  =       5.6692  a.u.
     unit-cell volume          =     200.4255 (a.u.)^3
     number of atoms/cell      =            2
     number of atomic types    =            2
     number of electrons       =        22.00
     number of Kohn-Sham states=           15
     kinetic-energy cutoff     =      40.0000  Ry
     charge density cutoff     =     320.0000  Ry
     scf convergence threshold =      1.0E-07
     mixing beta               =       0.2000
     number of iterations used =            8  plain     mixing
     energy convergence thresh.=      1.0E-04
     force convergence thresh. =      1.0E-03
     press convergence thresh. =      5.0E-01
     Exchange-correlation=  SLA  PZ   NOGX NOGC
                           (   1   1   0   0   0   0   0)
     nstep                     =           50

     celldm(1)=   5.669178  celldm(2)=   0.000000  celldm(3)=   0.000000
     celldm(4)=   0.000000  celldm(5)=   0.000000  celldm(6)=   0.000000

     crystal axes: (cart. coord. in units of alat)
               a(1) = (   1.000000   0.000000   0.000000 )
               a(2) = (   0.000000   1.000000   0.000000 )
               a(3) = (   0.000000   0.000000   1.100000 )

     reciprocal axes: (cart. coord. in units 2 pi/alat)
               b(1) = (  1.000000  0.000000  0.000000 )
               b(2) = (  0.000000  1.000000  0.000000 )
               b(3) = (  0.000000  0.000000  0.909091 )

     PseudoPot. # 1 for Cu read from file:
     /home/bond/Software/qe-7.1/pseudo/Cu.pz-d-rrkjus.UPF
     MD5 check sum: fd38ae683e239c95a66f426e1f8e5fc7
     Pseudo is Ultrasoft, Zval = 11.0
     Generated by new atomic code, or converted to UPF format
     Using radial grid of  899 points,  3 beta functions with:
                l(1) =   2
                l(2) =   2
                l(3) =   1
     Q(r) pseudized with 0 coefficients

     PseudoPot. # 2 for Au read from file:
     /home/bond/Software/qe-7.1/pseudo/Au.pz-d-rrkjus.UPF
     MD5 check sum: 424ffd4ac9c90487cbadcd287136c95b
     Pseudo is Ultrasoft, Zval = 11.0
     Generated by new atomic code, or converted to UPF format
     Using radial grid of 1279 points,  3 beta functions with:
                l(1) =   2
                l(2) =   2
                l(3) =   1
     Q(r) pseudized with 0 coefficients

     atomic species   valence    mass     pseudopotential
        Cu            11.00    63.54600     Cu( 1.00)
        Au            11.00   196.96650     Au( 1.00)

     16 Sym. Ops., with inversion, found

   Cartesian axes

     site n.     atom                  positions (alat units)
         1           Au  tau(   1) = (   0.0000000   0.0000000   0.0000000  )
         2           Cu  tau(   2) = (   0.5000000   0.5000000   0.5500000  )

     number of k points=    75  Methfessel-Paxton smearing, width (Ry)=  0.0200
                       cart. coord. in units 2pi/alat
        k(    1) = (   0.0000000   0.0000000   0.0000000), wk =   0.0039062
        k(    2) = (   0.0000000   0.0000000   0.1136364), wk =   0.0078125
        k(    3) = (   0.0000000   0.0000000   0.2272727), wk =   0.0078125
        k(    4) = (   0.0000000   0.0000000   0.3409091), wk =   0.0078125
        k(    5) = (   0.0000000   0.0000000  -0.4545455), wk =   0.0039062
        k(    6) = (   0.0000000   0.1250000   0.0000000), wk =   0.0156250
        k(    7) = (   0.0000000   0.1250000   0.1136364), wk =   0.0312500
        k(    8) = (   0.0000000   0.1250000   0.2272727), wk =   0.0312500
        k(    9) = (   0.0000000   0.1250000   0.3409091), wk =   0.0312500
        k(   10) = (   0.0000000   0.1250000  -0.4545455), wk =   0.0156250
        k(   11) = (   0.0000000   0.2500000   0.0000000), wk =   0.0156250
        k(   12) = (   0.0000000   0.2500000   0.1136364), wk =   0.0312500
        k(   13) = (   0.0000000   0.2500000   0.2272727), wk =   0.0312500
        k(   14) = (   0.0000000   0.2500000   0.3409091), wk =   0.0312500
        k(   15) = (   0.0000000   0.2500000  -0.4545455), wk =   0.0156250
        k(   16) = (   0.0000000   0.3750000   0.0000000), wk =   0.0156250
        k(   17) = (   0.0000000   0.3750000   0.1136364), wk =   0.0312500
        k(   18) = (   0.0000000   0.3750000   0.2272727), wk =   0.0312500
        k(   19) = (   0.0000000   0.3750000   0.3409091), wk =   0.0312500
        k(   20) = (   0.0000000   0.3750000  -0.4545455), wk =   0.0156250
        k(   21) = (   0.0000000  -0.5000000   0.0000000), wk =   0.0078125
        k(   22) = (   0.0000000  -0.5000000   0.1136364), wk =   0.0156250
        k(   23) = (   0.0000000  -0.5000000   0.2272727), wk =   0.0156250
        k(   24) = (   0.0000000  -0.5000000   0.3409091), wk =   0.0156250
        k(   25) = (   0.0000000  -0.5000000  -0.4545455), wk =   0.0078125
        k(   26) = (   0.1250000   0.1250000   0.0000000), wk =   0.0156250
        k(   27) = (   0.1250000   0.1250000   0.1136364), wk =   0.0312500
        k(   28) = (   0.1250000   0.1250000   0.2272727), wk =   0.0312500
        k(   29) = (   0.1250000   0.1250000   0.3409091), wk =   0.0312500
        k(   30) = (   0.1250000   0.1250000  -0.4545455), wk =   0.0156250
        k(   31) = (   0.1250000   0.2500000   0.0000000), wk =   0.0312500
        k(   32) = (   0.1250000   0.2500000   0.1136364), wk =   0.0625000
        k(   33) = (   0.1250000   0.2500000   0.2272727), wk =   0.0625000
        k(   34) = (   0.1250000   0.2500000   0.3409091), wk =   0.0625000
        k(   35) = (   0.1250000   0.2500000  -0.4545455), wk =   0.0312500
        k(   36) = (   0.1250000   0.3750000   0.0000000), wk =   0.0312500
        k(   37) = (   0.1250000   0.3750000   0.1136364), wk =   0.0625000
        k(   38) = (   0.1250000   0.3750000   0.2272727), wk =   0.0625000
        k(   39) = (   0.1250000   0.3750000   0.3409091), wk =   0.0625000
        k(   40) = (   0.1250000   0.3750000  -0.4545455), wk =   0.0312500
        k(   41) = (   0.1250000  -0.5000000   0.0000000), wk =   0.0156250
        k(   42) = (   0.1250000  -0.5000000   0.1136364), wk =   0.0312500
        k(   43) = (   0.1250000  -0.5000000   0.2272727), wk =   0.0312500
        k(   44) = (   0.1250000  -0.5000000   0.3409091), wk =   0.0312500
        k(   45) = (   0.1250000  -0.5000000  -0.4545455), wk =   0.0156250
        k(   46) = (   0.2500000   0.2500000   0.0000000), wk =   0.0156250
        k(   47) = (   0.2500000   0.2500000   0.1136364), wk =   0.0312500
        k(   48) = (   0.2500000   0.2500000   0.2272727), wk =   0.0312500
        k(   49) = (   0.2500000   0.2500000   0.3409091), wk =   0.0312500
        k(   50) = (   0.2500000   0.2500000  -0.4545455), wk =   0.0156250
        k(   51) = (   0.2500000   0.3750000   0.0000000), wk =   0.0312500
        k(   52) = (   0.2500000   0.3750000   0.1136364), wk =   0.0625000
        k(   53) = (   0.2500000   0.3750000   0.2272727), wk =   0.0625000
        k(   54) = (   0.2500000   0.3750000   0.3409091), wk =   0.0625000
        k(   55) = (   0.2500000   0.3750000  -0.4545455), wk =   0.0312500
        k(   56) = (   0.2500000  -0.5000000   0.0000000), wk =   0.0156250
        k(   57) = (   0.2500000  -0.5000000   0.1136364), wk =   0.0312500
        k(   58) = (   0.2500000  -0.5000000   0.2272727), wk =   0.0312500
        k(   59) = (   0.2500000  -0.5000000   0.3409091), wk =   0.0312500
        k(   60) = (   0.2500000  -0.5000000  -0.4545455), wk =   0.0156250
        k(   61) = (   0.3750000   0.3750000   0.0000000), wk =   0.0156250
        k(   62) = (   0.3750000   0.3750000   0.1136364), wk =   0.0312500
        k(   63) = (   0.3750000   0.3750000   0.2272727), wk =   0.0312500
        k(   64) = (   0.3750000   0.3750000   0.3409091), wk =   0.0312500
        k(   65) = (   0.3750000   0.3750000  -0.4545455), wk =   0.0156250
        k(   66) = (   0.3750000  -0.5000000   0.0000000), wk =   0.0156250
        k(   67) = (   0.3750000  -0.5000000   0.1136364), wk =   0.0312500
        k(   68) = (   0.3750000  -0.5000000   0.2272727), wk =   0.0312500
        k(   69) = (   0.3750000  -0.5000000   0.3409091), wk =   0.0312500
        k(   70) = (   0.3750000  -0.5000000  -0.4545455), wk =   0.0156250
        k(   71) = (  -0.5000000  -0.5000000   0.0000000), wk =   0.0039062
        k(   72) = (  -0.5000000  -0.5000000   0.1136364), wk =   0.0078125
        k(   73) = (  -0.5000000  -0.5000000   0.2272727), wk =   0.0078125
        k(   74) = (  -0.5000000  -0.5000000   0.3409091), wk =   0.0078125
        k(   75) = (  -0.5000000  -0.5000000  -0.4545455), wk =   0.0039062

     Initial potential from superposition of free atoms

     starting charge      21.9996, renormalised to      22.0000
     Starting wfcs are   15 randomized atomic wfcs

     Self-consistent Calculation

     iteration #  1     ecut=    40.00 Ry     beta= 0.20
     Davidson diagonalization with overlap
     ethr =  1.00E-02,  avg # of iterations =  3.4

     total energy              =    -154.72469114 Ry
     estimated scf accuracy    <       0.27717614 Ry

[...]

     iteration #  5     ecut=    40.00 Ry     beta= 0.20
     Davidson diagonalization with overlap
     c_bands:  1 eigenvalues not converged
     ethr =  1.86E-06,  avg # of iterations =  3.9

[...]

     End of self-consistent calculation

          k = 0.0000 0.0000 0.0000 (   865 PWs)   bands (ev):

     4.7787   8.1278   8.1889  10.2357  10.2357  10.6895  11.8151  12.1626
    12.5914  12.7098  12.7098  19.3949  22.3748  22.3748  25.1610

[...]

          k =-0.5000-0.5000 0.0000 (   848 PWs)   bands (ev):

[...]

     the Fermi energy is    14.2427 ev

!    total energy              =    -154.72543030 Ry
     estimated scf accuracy    <       0.00000007 Ry
     smearing contrib. (-TS)   =      -0.00005037 Ry
     internal energy E=F+TS    =    -154.72537994 Ry

     The total energy is F=E-TS. E is the sum of the following terms:
     one-electron contribution =      -8.88013502 Ry
     hartree contribution      =      29.09050522 Ry
     xc contribution           =     -24.45963669 Ry
     ewald contribution        =    -150.47611345 Ry

     convergence has been achieved in   8 iterations

     Forces acting on atoms (cartesian axes, Ry/au):

     atom    1 type  2   force =     0.00000000    0.00000000    0.00000000
     atom    2 type  1   force =     0.00000000    0.00000000    0.00000000

     Total force =     0.000000     Total SCF correction =     0.000000

     Computing stress (Cartesian axis) and pressure

          total   stress  (Ry/bohr**3)                   (kbar)     P=     -101.17
  -0.00070636   0.00000000   0.00000000         -103.91        0.00        0.00
   0.00000000  -0.00070636   0.00000000            0.00     -103.91        0.00
   0.00000000   0.00000000  -0.00065047            0.00        0.00      -95.69

     BFGS Geometry Optimization
     Energy error            =      0.0E+00 Ry
     Gradient error          =      0.0E+00 Ry/Bohr
     Cell gradient error     =      1.0E+02 kbar

     number of scf cycles    =   1
     number of bfgs steps    =   0

     enthalpy           new  =    -154.7254303048 Ry

     new trust radius        =       0.0500001764 bohr
     new conv_thr            =       0.0000001000 Ry

     new unit-cell volume =    190.26426 a.u.^3 (    28.19425 Ang^3 )
     density =     15.34324 g/cm^3

CELL_PARAMETERS (angstrom)
   2.947023133   0.000000000   0.000000000
   0.000000000   2.947023133   0.000000000
   0.000000000   0.000000000   3.246336424

ATOMIC_POSITIONS (angstrom)
Au            0.0000000000        0.0000000000        0.0000000000
Cu            1.4735115665        1.4735115665        1.6231682119

     Writing config-only to output data dir /home/bond/Work/Lab4/Problem3/pwscf.save/
     NEW-OLD atomic charge density approx. for the potential
     extrapolated charge   20.82509, renormalised to   22.00000

[...]

     Energy error            =      4.5E-03 Ry
     Gradient error          =      0.0E+00 Ry/Bohr
     Cell gradient error     =      2.6E+01 kbar

[...]

     enthalpy           old  =    -154.7254303048 Ry
     enthalpy           new  =    -154.7298817360 Ry

     CASE: enthalpy          _new < enthalpy          _old

[...]

     Threshold (ethr) on eigenvalues was too large:
     Diagonalizing with lowered threshold

     Davidson diagonalization with overlap
     ethr =  5.25E-08,  avg # of iterations =  1.0

[...]

     number of scf cycles    =   9
     number of bfgs steps    =   8

     enthalpy           old  =    -154.7301201263 Ry
     enthalpy           new  =    -154.7301209293 Ry

     CASE: enthalpy          _new < enthalpy          _old

     new trust radius        =       0.0003778521 bohr
     new conv_thr            =       0.0000000010 Ry

     new unit-cell volume =    187.73653 a.u.^3 (    27.81968 Ang^3 )
     density =     15.54982 g/cm^3

[...]

ATOMIC_POSITIONS (angstrom)
Au            0.0000000000        0.0000000000        0.0000000000
Cu            1.4604006132        1.4604006132        1.6304901837

     Writing config-only to output data dir /home/bond/Work/Lab4/Problem3/pwscf.save/
     NEW-OLD atomic charge density approx. for the potential
     extrapolated charge   21.99432, renormalised to   22.00000

[...]

     Threshold (ethr) on eigenvalues was too large:
     Diagonalizing with lowered threshold

     Davidson diagonalization with overlap
     ethr =  4.80E-08,  avg # of iterations =  1.0

[...]

     Energy error            =      1.5E-07 Ry
     Gradient error          =      0.0E+00 Ry/Bohr
     Cell gradient error     =      1.5E-01 kbar

     bfgs converged in  10 scf cycles and   9 bfgs steps
     (criteria: energy <  1.0E-04 Ry, force <  1.0E-03 Ry/Bohr, cell <  5.0E-01 kbar)

     End of BFGS Geometry Optimization

     Final enthalpy           =    -154.7301210776 Ry

     File /home/bond/Work/Lab4/Problem3/pwscf.bfgs deleted, as requested
Begin final coordinates
     new unit-cell volume =    187.73653 a.u.^3 (    27.81968 Ang^3 )
     density =     15.54982 g/cm^3

CELL_PARAMETERS (angstrom)
   2.920801226   0.000000000   0.000000000
   0.000000000   2.920801226   0.000000000
   0.000000000   0.000000000   3.260980367

ATOMIC_POSITIONS (angstrom)
Au            0.0000000000        0.0000000000        0.0000000000
Cu            1.4604006132        1.4604006132        1.6304901837
End final coordinates

     Writing config-only to output data dir /home/bond/Work/Lab4/Problem3/pwscf.save/

     Final scf calculation at the relaxed structure.
     The G-vectors are recalculated for the final unit cell
     Results may differ from those at the preceding step.

     Using Slab Decomposition

     bravais-lattice index     =            0
     lattice parameter (alat)  =       5.6692  a.u.
     unit-cell volume          =     187.7365 (a.u.)^3
     number of atoms/cell      =            2
     number of atomic types    =            2
     number of electrons       =        22.00
     number of Kohn-Sham states=           15
     kinetic-energy cutoff     =      40.0000  Ry
     charge density cutoff     =     320.0000  Ry
     scf convergence threshold =      1.0E-09
     mixing beta               =       0.2000
     number of iterations used =            8  plain     mixing
     press convergence thresh. =      5.0E-01
     Exchange-correlation=  SLA  PZ   NOGX NOGC
                           (   1   1   0   0   0   0   0)

     celldm(1)=   5.669178  celldm(2)=   0.000000  celldm(3)=   0.000000
     celldm(4)=   0.000000  celldm(5)=   0.000000  celldm(6)=   0.000000

     crystal axes: (cart. coord. in units of alat)
               a(1) = (   0.973600   0.000000   0.000000 )
               a(2) = (   0.000000   0.973600   0.000000 )
               a(3) = (   0.000000   0.000000   1.086993 )

     reciprocal axes: (cart. coord. in units 2 pi/alat)
               b(1) = (  1.027115  0.000000  0.000000 )
               b(2) = (  0.000000  1.027115  0.000000 )
               b(3) = (  0.000000  0.000000  0.919969 )

     PseudoPot. # 1 for Cu read from file:
     /home/bond/Software/qe-7.1/pseudo/Cu.pz-d-rrkjus.UPF
     MD5 check sum: fd38ae683e239c95a66f426e1f8e5fc7
     Pseudo is Ultrasoft, Zval = 11.0
     Generated by new atomic code, or converted to UPF format
     Using radial grid of  899 points,  3 beta functions with:
                l(1) =   2
                l(2) =   2
                l(3) =   1
     Q(r) pseudized with 0 coefficients

     PseudoPot. # 2 for Au read from file:
     /home/bond/Software/qe-7.1/pseudo/Au.pz-d-rrkjus.UPF
     MD5 check sum: 424ffd4ac9c90487cbadcd287136c95b
     Pseudo is Ultrasoft, Zval = 11.0
     Generated by new atomic code, or converted to UPF format
     Using radial grid of 1279 points,  3 beta functions with:
                l(1) =   2
                l(2) =   2
                l(3) =   1
     Q(r) pseudized with 0 coefficients

     atomic species   valence    mass     pseudopotential
        Cu            11.00    63.54600     Cu( 1.00)
        Au            11.00   196.96650     Au( 1.00)

     16 Sym. Ops., with inversion, found

   Cartesian axes

     site n.     atom                  positions (alat units)
         1           Au  tau(   1) = (   0.0000000   0.0000000   0.0000000  )
         2           Cu  tau(   2) = (   0.4868002   0.4868002   0.5434967  )

     number of k points=    75  Methfessel-Paxton smearing, width (Ry)=  0.0200
                       cart. coord. in units 2pi/alat
        k(    1) = (   0.0000000   0.0000000   0.0000000), wk =   0.0039062
        k(    2) = (   0.0000000   0.0000000   0.1149961), wk =   0.0078125
        k(    3) = (   0.0000000   0.0000000   0.2299922), wk =   0.0078125
        k(    4) = (   0.0000000   0.0000000   0.3449883), wk =   0.0078125
        k(    5) = (   0.0000000   0.0000000  -0.4599844), wk =   0.0039062
        k(    6) = (   0.0000000   0.1283894   0.0000000), wk =   0.0156250
        k(    7) = (   0.0000000   0.1283894   0.1149961), wk =   0.0312500
        k(    8) = (   0.0000000   0.1283894   0.2299922), wk =   0.0312500
        k(    9) = (   0.0000000   0.1283894   0.3449883), wk =   0.0312500
        k(   10) = (   0.0000000   0.1283894  -0.4599844), wk =   0.0156250
        k(   11) = (   0.0000000   0.2567789   0.0000000), wk =   0.0156250
        k(   12) = (   0.0000000   0.2567789   0.1149961), wk =   0.0312500
        k(   13) = (   0.0000000   0.2567789   0.2299922), wk =   0.0312500
        k(   14) = (   0.0000000   0.2567789   0.3449883), wk =   0.0312500
        k(   15) = (   0.0000000   0.2567789  -0.4599844), wk =   0.0156250
        k(   16) = (   0.0000000   0.3851683   0.0000000), wk =   0.0156250
        k(   17) = (   0.0000000   0.3851683   0.1149961), wk =   0.0312500
        k(   18) = (   0.0000000   0.3851683   0.2299922), wk =   0.0312500
        k(   19) = (   0.0000000   0.3851683   0.3449883), wk =   0.0312500
        k(   20) = (   0.0000000   0.3851683  -0.4599844), wk =   0.0156250
        k(   21) = (   0.0000000  -0.5135577   0.0000000), wk =   0.0078125
        k(   22) = (   0.0000000  -0.5135577   0.1149961), wk =   0.0156250
        k(   23) = (   0.0000000  -0.5135577   0.2299922), wk =   0.0156250
        k(   24) = (   0.0000000  -0.5135577   0.3449883), wk =   0.0156250
        k(   25) = (   0.0000000  -0.5135577  -0.4599844), wk =   0.0078125
        k(   26) = (   0.1283894   0.1283894   0.0000000), wk =   0.0156250
        k(   27) = (   0.1283894   0.1283894   0.1149961), wk =   0.0312500
        k(   28) = (   0.1283894   0.1283894   0.2299922), wk =   0.0312500
        k(   29) = (   0.1283894   0.1283894   0.3449883), wk =   0.0312500
        k(   30) = (   0.1283894   0.1283894  -0.4599844), wk =   0.0156250
        k(   31) = (   0.1283894   0.2567789   0.0000000), wk =   0.0312500
        k(   32) = (   0.1283894   0.2567789   0.1149961), wk =   0.0625000
        k(   33) = (   0.1283894   0.2567789   0.2299922), wk =   0.0625000
        k(   34) = (   0.1283894   0.2567789   0.3449883), wk =   0.0625000
        k(   35) = (   0.1283894   0.2567789  -0.4599844), wk =   0.0312500
        k(   36) = (   0.1283894   0.3851683   0.0000000), wk =   0.0312500
        k(   37) = (   0.1283894   0.3851683   0.1149961), wk =   0.0625000
        k(   38) = (   0.1283894   0.3851683   0.2299922), wk =   0.0625000
        k(   39) = (   0.1283894   0.3851683   0.3449883), wk =   0.0625000
        k(   40) = (   0.1283894   0.3851683  -0.4599844), wk =   0.0312500
        k(   41) = (   0.1283894  -0.5135577   0.0000000), wk =   0.0156250
        k(   42) = (   0.1283894  -0.5135577   0.1149961), wk =   0.0312500
        k(   43) = (   0.1283894  -0.5135577   0.2299922), wk =   0.0312500
        k(   44) = (   0.1283894  -0.5135577   0.3449883), wk =   0.0312500
        k(   45) = (   0.1283894  -0.5135577  -0.4599844), wk =   0.0156250
        k(   46) = (   0.2567789   0.2567789   0.0000000), wk =   0.0156250
        k(   47) = (   0.2567789   0.2567789   0.1149961), wk =   0.0312500
        k(   48) = (   0.2567789   0.2567789   0.2299922), wk =   0.0312500
        k(   49) = (   0.2567789   0.2567789   0.3449883), wk =   0.0312500
        k(   50) = (   0.2567789   0.2567789  -0.4599844), wk =   0.0156250
        k(   51) = (   0.2567789   0.3851683   0.0000000), wk =   0.0312500
        k(   52) = (   0.2567789   0.3851683   0.1149961), wk =   0.0625000
        k(   53) = (   0.2567789   0.3851683   0.2299922), wk =   0.0625000
        k(   54) = (   0.2567789   0.3851683   0.3449883), wk =   0.0625000
        k(   55) = (   0.2567789   0.3851683  -0.4599844), wk =   0.0312500
        k(   56) = (   0.2567789  -0.5135577   0.0000000), wk =   0.0156250
        k(   57) = (   0.2567789  -0.5135577   0.1149961), wk =   0.0312500
        k(   58) = (   0.2567789  -0.5135577   0.2299922), wk =   0.0312500
        k(   59) = (   0.2567789  -0.5135577   0.3449883), wk =   0.0312500
        k(   60) = (   0.2567789  -0.5135577  -0.4599844), wk =   0.0156250
        k(   61) = (   0.3851683   0.3851683   0.0000000), wk =   0.0156250
        k(   62) = (   0.3851683   0.3851683   0.1149961), wk =   0.0312500
        k(   63) = (   0.3851683   0.3851683   0.2299922), wk =   0.0312500
        k(   64) = (   0.3851683   0.3851683   0.3449883), wk =   0.0312500
        k(   65) = (   0.3851683   0.3851683  -0.4599844), wk =   0.0156250
        k(   66) = (   0.3851683  -0.5135577   0.0000000), wk =   0.0156250
        k(   67) = (   0.3851683  -0.5135577   0.1149961), wk =   0.0312500
        k(   68) = (   0.3851683  -0.5135577   0.2299922), wk =   0.0312500
        k(   69) = (   0.3851683  -0.5135577   0.3449883), wk =   0.0312500
        k(   70) = (   0.3851683  -0.5135577  -0.4599844), wk =   0.0156250
        k(   71) = (  -0.5135577  -0.5135577   0.0000000), wk =   0.0039062
        k(   72) = (  -0.5135577  -0.5135577   0.1149961), wk =   0.0078125
        k(   73) = (  -0.5135577  -0.5135577   0.2299922), wk =   0.0078125
        k(   74) = (  -0.5135577  -0.5135577   0.3449883), wk =   0.0078125
        k(   75) = (  -0.5135577  -0.5135577  -0.4599844), wk =   0.0039062

     Initial potential from superposition of free atoms

     starting charge      21.9996, renormalised to      22.0000
     Starting wfcs are   15 randomized atomic wfcs

     Self-consistent Calculation

     iteration #  1     ecut=    40.00 Ry     beta= 0.20
     Davidson diagonalization with overlap
     c_bands:  1 eigenvalues not converged
     c_bands:  1 eigenvalues not converged
     c_bands:  1 eigenvalues not converged
     c_bands:  1 eigenvalues not converged
     c_bands:  1 eigenvalues not converged
     c_bands:  1 eigenvalues not converged
     c_bands:  1 eigenvalues not converged
     c_bands:  1 eigenvalues not converged
     c_bands:  1 eigenvalues not converged
     c_bands:  1 eigenvalues not converged
     c_bands:  1 eigenvalues not converged
     c_bands:  1 eigenvalues not converged
     c_bands:  1 eigenvalues not converged
     ethr =  1.00E-06,  avg # of iterations = 14.2

[...]

     total energy              =    -154.73004590 Ry
     estimated scf accuracy    <       0.00000002 Ry

     iteration # 11     ecut=    40.00 Ry     beta= 0.20
     Davidson diagonalization with overlap
     ethr =  7.04E-11,  avg # of iterations =  1.5

     End of self-consistent calculation

[...]

          k = 0.3852-0.5136-0.4600 (   796 PWs)   bands (ev):

[...]

          k =-0.5136-0.5136-0.4600 (   816 PWs)   bands (ev):

     9.2131   9.6052   9.6052  11.9305  12.0742  12.0742  12.8695  13.3979
    13.5321  13.6073  20.9729  21.1494  21.4349  21.4349  22.0379

     the Fermi energy is    15.6336 ev

!    total energy              =    -154.73004590 Ry
     estimated scf accuracy    <          4.6E-10 Ry
     smearing contrib. (-TS)   =      -0.00007943 Ry
     internal energy E=F+TS    =    -154.72996647 Ry

     The total energy is F=E-TS. E is the sum of the following terms:
     one-electron contribution =      -4.03344752 Ry
     hartree contribution      =      27.64232004 Ry
     xc contribution           =     -24.54896461 Ry
     ewald contribution        =    -153.78987438 Ry

     convergence has been achieved in  11 iterations

     Forces acting on atoms (cartesian axes, Ry/au):

     atom    1 type  2   force =     0.00000000    0.00000000    0.00000000
     atom    2 type  1   force =     0.00000000    0.00000000    0.00000000

     Total force =     0.000000     Total SCF correction =     0.000000

     Computing stress (Cartesian axis) and pressure

          total   stress  (Ry/bohr**3)                   (kbar)     P=       -0.08
  -0.00000042   0.00000000   0.00000000           -0.06        0.00        0.00
   0.00000000  -0.00000042   0.00000000            0.00       -0.06        0.00
   0.00000000   0.00000000  -0.00000069            0.00        0.00       -0.10

     General routines

     Parallel routines

   This run was terminated on:  21:38:59  20Mar2023

   JOB DONE.