     Program PWSCF v.7.1 starts on  3Mar2023 at  4:39:49

     Waiting for input...
     Reading input from standard input

     Current dimensions of program PWSCF are:
     Max number of different atomic species (ntypx) = 10
     Max number of k-points (npk) =  40000
     Max angular momentum in pseudopotentials (lmaxx) =  4

     Subspace diagonalization in iterative solution of the eigenvalue problem:
     a serial algorithm will be used

     Using Slab Decomposition

     bravais-lattice index     =            2
     lattice parameter (alat)  =      14.0000  a.u.
     unit-cell volume          =     686.0000 (a.u.)^3
     number of atoms/cell      =            2
     number of atomic types    =            1
     number of electrons       =        28.00
     number of Kohn-Sham states=           14
     kinetic-energy cutoff     =      30.0000  Ry
     charge density cutoff     =     120.0000  Ry
     scf convergence threshold =      1.0E-08
     mixing beta               =       0.7000
     number of iterations used =            8  plain     mixing
     energy convergence thresh.=      1.0E-05
     force convergence thresh. =      1.0E-04
     press convergence thresh. =      5.0E-01
     Exchange-correlation=  SLA  PZ   NOGX NOGC
                           (   1   1   0   0   0   0   0)
     nstep                     =           50

     celldm(1)=  14.000000  celldm(2)=   0.000000  celldm(3)=   0.000000
     celldm(4)=   0.000000  celldm(5)=   0.000000  celldm(6)=   0.000000

     crystal axes: (cart. coord. in units of alat)
               a(1) = (  -0.500000   0.000000   0.500000 )
               a(2) = (   0.000000   0.500000   0.500000 )
               a(3) = (  -0.500000   0.500000   0.000000 )

     reciprocal axes: (cart. coord. in units 2 pi/alat)
               b(1) = ( -1.000000 -1.000000  1.000000 )
               b(2) = (  1.000000  1.000000  1.000000 )
               b(3) = ( -1.000000  1.000000 -1.000000 )

     PseudoPot. # 1 for Ge read from file:
     /home/bond/Software/qe-7.1/pseudo/ge_lda_v1.4.uspp.F.UPF
     MD5 check sum: bf9d52b59cc8a669818bb2b52e0c2ba0
     Pseudo is Ultrasoft + core correction, Zval = 14.0
     Generated by new atomic code, or converted to UPF format
     Using radial grid of  873 points,  6 beta functions with:
                l(1) =   0
                l(2) =   0
                l(3) =   1
                l(4) =   1
                l(5) =   2
                l(6) =   2
     Q(r) pseudized with  8 coefficients,  rinner =    1.400   1.400   1.400
                                                       1.400   1.400

     atomic species   valence    mass     pseudopotential
        Ge            14.00    72.61000     Ge( 1.00)

      6 Sym. Ops. (no inversion) found

   Cartesian axes

     site n.     atom                  positions (alat units)
         1           Ge  tau(   1) = (   0.0000000   0.0000000   0.0000000  )
         2           Ge  tau(   2) = (   0.1687255   0.1687255   0.1687255  )

     number of k points=    30
                       cart. coord. in units 2pi/alat
        k(    1) = (  -0.1250000   0.1250000   0.1250000), wk =   0.0468750
        k(    2) = (  -0.3750000   0.3750000  -0.1250000), wk =   0.0937500
        k(    3) = (   0.3750000  -0.3750000   0.6250000), wk =   0.0937500
        k(    4) = (   0.1250000  -0.1250000   0.3750000), wk =   0.0937500
        k(    5) = (  -0.1250000   0.6250000   0.1250000), wk =   0.0937500
        k(    6) = (   0.6250000  -0.1250000   0.8750000), wk =   0.0937500
        k(    7) = (   0.3750000   0.1250000   0.6250000), wk =   0.0937500
        k(    8) = (  -0.1250000  -0.8750000   0.1250000), wk =   0.0937500
        k(    9) = (  -0.3750000   0.3750000   0.3750000), wk =   0.0468750
        k(   10) = (   0.3750000  -0.3750000   1.1250000), wk =   0.0937500
        k(   11) = (   0.1250000   0.1250000   0.1250000), wk =   0.0156250
        k(   12) = (   0.3750000   0.3750000  -0.1250000), wk =   0.0468750
        k(   13) = (  -0.3750000  -0.3750000  -0.1250000), wk =   0.0468750
        k(   14) = (  -0.3750000  -0.3750000   0.6250000), wk =   0.0468750
        k(   15) = (   0.3750000   0.3750000   0.6250000), wk =   0.0468750
        k(   16) = (  -0.1250000  -0.1250000   0.3750000), wk =   0.0468750
        k(   17) = (   0.1250000   0.1250000   0.3750000), wk =   0.0468750
        k(   18) = (   0.6250000   0.1250000   0.1250000), wk =   0.0468750
        k(   19) = (  -0.1250000   0.6250000  -0.1250000), wk =   0.0468750
        k(   20) = (  -0.1250000  -0.6250000   0.8750000), wk =   0.0937500
        k(   21) = (   0.1250000   0.6250000   0.8750000), wk =   0.0937500
        k(   22) = (  -0.8750000  -0.1250000   0.6250000), wk =   0.0937500
        k(   23) = (   0.1250000  -0.3750000   0.6250000), wk =   0.0937500
        k(   24) = (  -0.1250000   0.3750000   0.6250000), wk =   0.0937500
        k(   25) = (  -0.6250000   0.1250000   0.3750000), wk =   0.0937500
        k(   26) = (  -0.8750000   0.1250000   0.1250000), wk =   0.0468750
        k(   27) = (  -0.1250000  -0.8750000  -0.1250000), wk =   0.0468750
        k(   28) = (   0.3750000   0.3750000   0.3750000), wk =   0.0156250
        k(   29) = (  -0.3750000  -0.3750000   1.1250000), wk =   0.0468750
        k(   30) = (   0.3750000   0.3750000   1.1250000), wk =   0.0468750

     Check: negative core charge=   -0.000111

     Initial potential from superposition of free atoms

     starting charge      27.9986, renormalised to      28.0000
     Starting wfcs are   18 randomized atomic wfcs

     Self-consistent Calculation

     iteration #  1     ecut=    30.00 Ry     beta= 0.70
     Davidson diagonalization with overlap
     ethr =  1.00E-02,  avg # of iterations =  2.0

     Threshold (ethr) on eigenvalues was too large:
     Diagonalizing with lowered threshold

     Davidson diagonalization with overlap
     ethr =  6.32E-05,  avg # of iterations =  3.4

     total energy              =    -425.83673473 Ry
     estimated scf accuracy    <       0.02290679 Ry

[...]

     End of self-consistent calculation

          k =-0.1250 0.1250 0.1250 (  1898 PWs)   bands (ev):

   -24.3459 -24.1149 -24.1146 -24.0041 -24.0029 -23.9707 -23.9701 -23.8779
   -23.8765 -23.7611  -9.1945  -3.7634  -0.8339   0.6773

[...]

          k = 0.3750-0.3750 0.6250 (  1912 PWs)   bands (ev):

[...]

     highest occupied level (ev):     0.7246

!    total energy              =    -425.84107655 Ry
     estimated scf accuracy    <          3.6E-09 Ry

     The total energy is the sum of the following terms:
     one-electron contribution =    -378.08270348 Ry
     hartree contribution      =     206.93372395 Ry
     xc contribution           =    -114.02206076 Ry
     ewald contribution        =    -140.67003626 Ry

     convergence has been achieved in   8 iterations

     Forces acting on atoms (cartesian axes, Ry/au):

     atom    1 type  1   force =    -0.07548458   -0.07548458   -0.07548458
     atom    2 type  1   force =     0.07548458    0.07548458    0.07548458

     Total force =     0.184899     Total SCF correction =     0.000495

     Computing stress (Cartesian axis) and pressure

          total   stress  (Ry/bohr**3)                   (kbar)     P=      -79.99
  -0.00054379   0.00014736   0.00014736          -79.99       21.68       21.68
   0.00014736  -0.00054379   0.00014736           21.68      -79.99       21.68
   0.00014736   0.00014736  -0.00054379           21.68       21.68      -79.99

     BFGS Geometry Optimization
     Energy error            =      0.0E+00 Ry
     Gradient error          =      7.5E-02 Ry/Bohr
     Cell gradient error     =      8.0E+01 kbar

     number of scf cycles    =   1
     number of bfgs steps    =   0

     enthalpy           new  =    -425.8410765515 Ry

     new trust radius        =       0.1307431270 bohr
ibrav =      2
 celldm(1) =     13.75809667
Input lattice vectors:
    -0.49136060     0.00000000     0.49136060
     0.00368411     0.49504471     0.49504471
    -0.49136060     0.49136060     0.00000000
New lattice vectors in INITIAL alat:
    -0.49136060     0.00000000     0.49136060
     0.00000000     0.49136060     0.49136060
    -0.49136060     0.49136060     0.00000000
New lattice vectors in NEW alat (for information only):
    -0.50000000     0.00000000     0.50000000
     0.00000000     0.50000000     0.50000000
    -0.50000000     0.50000000     0.00000000
Discrepancy in bohr =     0.000000    0.006381    0.000000
     new conv_thr            =       0.0000000100 Ry

     new unit-cell volume =    651.05110 a.u.^3 (    96.47582 Ang^3 )
     density =      2.49952 g/cm^3

CELL_PARAMETERS (alat= 14.00000000)
  -0.491360595   0.000000000   0.491360595
   0.000000000   0.491360595   0.491360595
  -0.491360595   0.491360595   0.000000000

ATOMIC_POSITIONS (angstrom)
Ge           -0.0392545221       -0.0392545221       -0.0392545221
Ge            1.2676560102        1.2676560102        1.2676560102

     Writing config-only to output data dir /home/bond/Work/Lab3/test/Ge.save/
     NEW-OLD atomic charge density approx. for the potential

     Check: negative core charge=   -0.000079
     extrapolated charge   26.49702, renormalised to   28.00000

[...]

     Energy error            =      4.7E-02 Ry
     Gradient error          =      5.3E-02 Ry/Bohr
     Cell gradient error     =      8.1E+01 kbar

[...]

     enthalpy           old  =    -425.8410765515 Ry
     enthalpy           new  =    -425.8878230085 Ry

     CASE: enthalpy          _new < enthalpy          _old

     WARNING: bfgs curvature condition failed, Theta= 0.981
     new trust radius        =       0.1927260621 bohr
ibrav =      2
 celldm(1) =     13.31940516
Input lattice vectors:
    -0.47569304    -0.00000000     0.47569304
    -0.00213528     0.47355776     0.47355776
    -0.47569304     0.47569304     0.00000000
New lattice vectors in INITIAL alat:
    -0.47569304     0.00000000     0.47569304
     0.00000000     0.47569304     0.47569304
    -0.47569304     0.47569304     0.00000000
New lattice vectors in NEW alat (for information only):
    -0.50000000     0.00000000     0.50000000
     0.00000000     0.50000000     0.50000000
    -0.50000000     0.50000000     0.00000000
Discrepancy in bohr =     0.000000    0.003698    0.000000
     new conv_thr            =       0.0000000100 Ry

[...]

     iteration #  1     ecut=    30.00 Ry     beta= 0.70
     Davidson diagonalization with overlap
     c_bands:  1 eigenvalues not converged
     c_bands:  1 eigenvalues not converged
     c_bands:  1 eigenvalues not converged
     ethr =  1.00E-06,  avg # of iterations = 15.1

[...]

     negative rho (up, down):  9.663E-02 0.000E+00
     extrapolated charge   19.03257, renormalised to   28.00000

[...]

     negative rho (up, down):  1.853E-02 0.000E+00
     extrapolated charge   17.41472, renormalised to   28.00000

[...]

     CASE: enthalpy          _new > enthalpy          _old

[...]

     iteration #  1     ecut=    30.00 Ry     beta= 0.70
     Davidson diagonalization with overlap
     c_bands:  4 eigenvalues not converged
     c_bands:  3 eigenvalues not converged
     c_bands:  3 eigenvalues not converged
     c_bands:  5 eigenvalues not converged
     c_bands:  5 eigenvalues not converged
     c_bands:  1 eigenvalues not converged
     c_bands:  3 eigenvalues not converged
     c_bands:  1 eigenvalues not converged
     c_bands:  2 eigenvalues not converged
     c_bands:  3 eigenvalues not converged
     c_bands:  1 eigenvalues not converged
     c_bands:  1 eigenvalues not converged
     c_bands:  2 eigenvalues not converged
     c_bands:  3 eigenvalues not converged
     c_bands:  2 eigenvalues not converged
     c_bands:  3 eigenvalues not converged
     c_bands:  2 eigenvalues not converged
     c_bands:  1 eigenvalues not converged
     c_bands:  1 eigenvalues not converged
     c_bands:  1 eigenvalues not converged
     c_bands:  2 eigenvalues not converged
     c_bands:  2 eigenvalues not converged
     ethr =  1.00E-06,  avg # of iterations = 19.8

[...]

     WARNING: bfgs curvature condition failed, Theta= 0.917
     new trust radius        =       0.0350064997 bohr
ibrav =      2
 celldm(1) =     10.80747292
Input lattice vectors:
    -0.38598118     0.00000000     0.38598118
    -0.00014853     0.38583264     0.38583264
    -0.38598118     0.38598118     0.00000000
New lattice vectors in INITIAL alat:
    -0.38598118     0.00000000     0.38598118
     0.00000000     0.38598118     0.38598118
    -0.38598118     0.38598118     0.00000000
New lattice vectors in NEW alat (for information only):
    -0.50000000     0.00000000     0.50000000
     0.00000000     0.50000000     0.50000000
    -0.50000000     0.50000000     0.00000000
Discrepancy in bohr =     0.000000    0.000257    0.000000
     new conv_thr            =       0.0000000100 Ry

[...]

     Energy error            =      1.4E-06 Ry
     Gradient error          =      8.0E-05 Ry/Bohr
     Cell gradient error     =      8.3E-01 kbar

     number of scf cycles    =  13
     number of bfgs steps    =  11

     enthalpy           old  =    -426.1711805280 Ry
     enthalpy           new  =    -426.1711819680 Ry

     CASE: enthalpy          _new < enthalpy          _old

     new trust radius        =       0.0009558025 bohr
ibrav =      2
 celldm(1) =     10.61674502
Input lattice vectors:
    -0.37916946     0.00000000     0.37916946
     0.00000086     0.37917033     0.37917033
    -0.37916946     0.37916946    -0.00000000
New lattice vectors in INITIAL alat:
    -0.37916946     0.00000000     0.37916946
     0.00000000     0.37916946     0.37916946
    -0.37916946     0.37916946     0.00000000
New lattice vectors in NEW alat (for information only):
    -0.50000000     0.00000000     0.50000000
     0.00000000     0.50000000     0.50000000
    -0.50000000     0.50000000     0.00000000
Discrepancy in bohr =     0.000000    0.000001    0.000000
     new conv_thr            =            1.0E-10 Ry

     new unit-cell volume =    299.16733 a.u.^3 (    44.33202 Ang^3 )
     density =      5.43949 g/cm^3

[...]

ATOMIC_POSITIONS (angstrom)
Ge           -0.2282388643       -0.2282388643       -0.2282388643
Ge            1.1761625266        1.1761625266        1.1761625266

     Writing config-only to output data dir /home/bond/Work/Lab3/test/Ge.save/
     NEW-OLD atomic charge density approx. for the potential

     Check: negative core charge=   -0.000002
     extrapolated charge   28.02311, renormalised to   28.00000

[...]

     Energy error            =      5.9E-07 Ry
     Gradient error          =      6.1E-05 Ry/Bohr
     Cell gradient error     =      5.8E-02 kbar
ibrav =      2
 celldm(1) =     10.61674502
Input lattice vectors:
    -0.37916946     0.00000000     0.37916946
     0.00000000     0.37916946     0.37916946
    -0.37916946     0.37916946     0.00000000
New lattice vectors in INITIAL alat:
    -0.37916946     0.00000000     0.37916946
     0.00000000     0.37916946     0.37916946
    -0.37916946     0.37916946     0.00000000
New lattice vectors in NEW alat (for information only):
    -0.50000000     0.00000000     0.50000000
     0.00000000     0.50000000     0.50000000
    -0.50000000     0.50000000     0.00000000
Discrepancy in bohr =     0.000000    0.000000    0.000000

     bfgs converged in  14 scf cycles and  12 bfgs steps
     (criteria: energy <  1.0E-05 Ry, force <  1.0E-04 Ry/Bohr, cell <  5.0E-01 kbar)

     End of BFGS Geometry Optimization

     Final enthalpy           =    -426.1711825607 Ry

     File /home/bond/Work/Lab3/test/Ge.bfgs deleted, as requested
Begin final coordinates
     new unit-cell volume =    299.16733 a.u.^3 (    44.33202 Ang^3 )
     density =      5.43949 g/cm^3

CELL_PARAMETERS (alat= 14.00000000)
  -0.379169465   0.000000000   0.379169465
   0.000000000   0.379169465   0.379169465
  -0.379169465   0.379169465   0.000000000

ATOMIC_POSITIONS (angstrom)
Ge           -0.2282388643       -0.2282388643       -0.2282388643
Ge            1.1761625266        1.1761625266        1.1761625266
End final coordinates

     Writing config-only to output data dir /home/bond/Work/Lab3/test/Ge.save/

     Final scf calculation at the relaxed structure.
     The G-vectors are recalculated for the final unit cell
     Results may differ from those at the preceding step.

     Using Slab Decomposition

     bravais-lattice index     =            2
     lattice parameter (alat)  =      14.0000  a.u.
     unit-cell volume          =     299.1673 (a.u.)^3
     number of atoms/cell      =            2
     number of atomic types    =            1
     number of electrons       =        28.00
     number of Kohn-Sham states=           14
     kinetic-energy cutoff     =      30.0000  Ry
     charge density cutoff     =     120.0000  Ry
     scf convergence threshold =      1.0E-10
     mixing beta               =       0.7000
     number of iterations used =            8  plain     mixing
     press convergence thresh. =      5.0E-01
     Exchange-correlation=  SLA  PZ   NOGX NOGC
                           (   1   1   0   0   0   0   0)

     celldm(1)=  14.000000  celldm(2)=   0.000000  celldm(3)=   0.000000
     celldm(4)=   0.000000  celldm(5)=   0.000000  celldm(6)=   0.000000

     crystal axes: (cart. coord. in units of alat)
               a(1) = (  -0.379169   0.000000   0.379169 )
               a(2) = (   0.000000   0.379169   0.379169 )
               a(3) = (  -0.379169   0.379169   0.000000 )

     reciprocal axes: (cart. coord. in units 2 pi/alat)
               b(1) = ( -1.318672 -1.318672  1.318672 )
               b(2) = (  1.318672  1.318672  1.318672 )
               b(3) = ( -1.318672  1.318672 -1.318672 )

     PseudoPot. # 1 for Ge read from file:
     /home/bond/Software/qe-7.1/pseudo/ge_lda_v1.4.uspp.F.UPF
     MD5 check sum: bf9d52b59cc8a669818bb2b52e0c2ba0
     Pseudo is Ultrasoft + core correction, Zval = 14.0
     Generated by new atomic code, or converted to UPF format
     Using radial grid of  873 points,  6 beta functions with:
                l(1) =   0
                l(2) =   0
                l(3) =   1
                l(4) =   1
                l(5) =   2
                l(6) =   2
     Q(r) pseudized with  8 coefficients,  rinner =    1.400   1.400   1.400
                                                       1.400   1.400

     atomic species   valence    mass     pseudopotential
        Ge            14.00    72.61000     Ge( 1.00)

      6 Sym. Ops. (no inversion) found

   Cartesian axes

     site n.     atom                  positions (alat units)
         1           Ge  tau(   1) = (  -0.0308078  -0.0308078  -0.0308078  )
         2           Ge  tau(   2) = (   0.1587589   0.1587589   0.1587589  )

     number of k points=    30
                       cart. coord. in units 2pi/alat
        k(    1) = (  -0.1648339   0.1648339   0.1648339), wk =   0.0468750
        k(    2) = (  -0.4945018   0.4945018  -0.1648339), wk =   0.0937500
        k(    3) = (   0.4945018  -0.4945018   0.8241697), wk =   0.0937500
        k(    4) = (   0.1648339  -0.1648339   0.4945018), wk =   0.0937500
        k(    5) = (  -0.1648339   0.8241697   0.1648339), wk =   0.0937500
        k(    6) = (   0.8241697  -0.1648339   1.1538376), wk =   0.0937500
        k(    7) = (   0.4945018   0.1648339   0.8241697), wk =   0.0937500
        k(    8) = (  -0.1648339  -1.1538376   0.1648339), wk =   0.0937500
        k(    9) = (  -0.4945018   0.4945018   0.4945018), wk =   0.0468750
        k(   10) = (   0.4945018  -0.4945018   1.4835055), wk =   0.0937500
        k(   11) = (   0.1648339   0.1648339   0.1648339), wk =   0.0156250
        k(   12) = (   0.4945018   0.4945018  -0.1648339), wk =   0.0468750
        k(   13) = (  -0.4945018  -0.4945018  -0.1648339), wk =   0.0468750
        k(   14) = (  -0.4945018  -0.4945018   0.8241697), wk =   0.0468750
        k(   15) = (   0.4945018   0.4945018   0.8241697), wk =   0.0468750
        k(   16) = (  -0.1648339  -0.1648339   0.4945018), wk =   0.0468750
        k(   17) = (   0.1648339   0.1648339   0.4945018), wk =   0.0468750
        k(   18) = (   0.8241697   0.1648339   0.1648339), wk =   0.0468750
        k(   19) = (  -0.1648339   0.8241697  -0.1648339), wk =   0.0468750
        k(   20) = (  -0.1648339  -0.8241697   1.1538376), wk =   0.0937500
        k(   21) = (   0.1648339   0.8241697   1.1538376), wk =   0.0937500
        k(   22) = (  -1.1538376  -0.1648339   0.8241697), wk =   0.0937500
        k(   23) = (   0.1648339  -0.4945018   0.8241697), wk =   0.0937500
        k(   24) = (  -0.1648339   0.4945018   0.8241697), wk =   0.0937500
        k(   25) = (  -0.8241697   0.1648339   0.4945018), wk =   0.0937500
        k(   26) = (  -1.1538376   0.1648339   0.1648339), wk =   0.0468750
        k(   27) = (  -0.1648339  -1.1538376  -0.1648339), wk =   0.0468750
        k(   28) = (   0.4945018   0.4945018   0.4945018), wk =   0.0156250
        k(   29) = (  -0.4945018  -0.4945018   1.4835055), wk =   0.0468750
        k(   30) = (   0.4945018   0.4945018   1.4835055), wk =   0.0468750

     Check: negative core charge=   -0.000154

     Initial potential from superposition of free atoms

     starting charge      27.9986, renormalised to      28.0000
     Starting wfcs are   18 randomized atomic wfcs

     Self-consistent Calculation

[...]

     total energy              =    -426.13887802 Ry
     estimated scf accuracy    <          2.6E-10 Ry

     iteration #  8     ecut=    30.00 Ry     beta= 0.70
     Davidson diagonalization with overlap
     ethr =  9.20E-13,  avg # of iterations =  3.1

     End of self-consistent calculation

[...]

          k =-0.4945-0.4945 1.4835 (   833 PWs)   bands (ev):

[...]

          k = 0.4945 0.4945 1.4835 (   833 PWs)   bands (ev):

   -16.6285 -16.6148 -16.5341 -16.4737 -16.4650 -16.4091 -16.3981 -16.3635
   -16.2748 -16.2621  -1.8301   0.7137   4.1660   6.3010

     highest occupied level (ev):     8.0866

!    total energy              =    -426.13887802 Ry
     estimated scf accuracy    <          1.0E-12 Ry

     The total energy is the sum of the following terms:
     one-electron contribution =    -276.66469096 Ry
     hartree contribution      =     163.94576629 Ry
     xc contribution           =    -114.52426314 Ry
     ewald contribution        =    -198.89569022 Ry

     convergence has been achieved in   8 iterations

     Forces acting on atoms (cartesian axes, Ry/au):

     atom    1 type  1   force =    -0.00006731   -0.00006731   -0.00006731
     atom    2 type  1   force =     0.00006731    0.00006731    0.00006731

     Total force =     0.000165     Total SCF correction =     0.000001

     Computing stress (Cartesian axis) and pressure

          total   stress  (Ry/bohr**3)                   (kbar)     P=     -146.89
  -0.00099853   0.00000028   0.00000028         -146.89        0.04        0.04
   0.00000028  -0.00099853   0.00000028            0.04     -146.89        0.04
   0.00000028   0.00000028  -0.00099853            0.04        0.04     -146.89

     Writing all to output data dir /home/bond/Work/Lab3/test/Ge.save/

     General routines

     Parallel routines

   This run was terminated on:   4:52:48   3Mar2023

   JOB DONE.